13 
11 
11 
1 
3 
8 
4 
6 
8 
3 
8 
5 
5 
7 
7 
5 
6 
7 
8 
9 
6 
3 
4 
5 
7 
6 
6 
8 
4 
5 
7 
7 
7 
17 
11 
8 
7 
8 
1 
7 
6 
8 
4 
1 
3 
5 
4 
6 
7 
8 
5 
1 
7 
8 
2 
4 
7 
1 
3 
4 
7 
8 
7 
3 
3 
11 
7 
1 
3 
1 
3 
6 
6 
13 
1 
6 
3 
8 
5 
10 
5 
13 
1 
3 
3 
9 
8 
6 
8 
7 
9 
6 
2 
3 
10 
3 
5 
4 
7 
8 
